! Solving for graph /home/truongxuanhieu/CPLEX-CP-for-MinSpanLabeling/benchmarks/cabp/S-sherman4.mtx.rnd
! Target value is set to 258
! Lower bound is set to 259
! Upper bound is set to 546
! Time limit is set to 1800
! Vertices mode is set to Has hole
! Target value mode is set to Cyclic
 ! --------------------------------------------------- CP Optimizer 22.2.0.0 --
 ! Minimization problem - 547 variables, 1343 constraints, 1 phase
 ! TimeLimit            = 1800
 ! LogVerbosity         = Terse
 ! Initial process time : 0.03s (0.03s extraction + 0.00s propagation)
 !  . Log search space  : 4963.5 (before), 4963.5 (after)
 !  . Memory usage      : 2.8 MB (before), 2.8 MB (after)
 ! Using parallel search with 8 workers.
 ! ----------------------------------------------------------------------------
 !          Best Branches  Non-fixed    W       Branch decision
                        0        547                 -
 + New bound is 516
 *           516      775  0.22s        1      (gap is 0.00%)
 ! ----------------------------------------------------------------------------
 ! Search completed, 1 solution found.
 ! Best objective         : 516 (optimal - effective tol. is 0)
 ! Best bound             : 516
 ! ----------------------------------------------------------------------------
 ! Number of branches     : 7785
 ! Number of fails        : 2922
 ! Total memory usage     : 50.4 MB (49.0 MB CP Optimizer + 1.3 MB Concert)
 ! Time spent in solve    : 0.22s (0.20s engine + 0.03s extraction)
 ! Search speed (br. / s) : 40973.7
 ! ----------------------------------------------------------------------------
! --------------------------------------------------------
! Best span = 516
! Labeling: 258 258 516 516 516 258 258 258 258 258 516 258 258 516 258 258 258 516 516 516 258 516 516 258 516 516 258 258 258 516 516 516 516 516 258 258 516 258 516 258 258 516 258 516 516 516 516 516 516 516 516 516 258 258 516 258 258 516 516 516 516 516 516 516 516 258 516 258 516 258 516 258 258 258 258 258 258 516 258 258 516 516 258 516 258 258 516 258 258 258 258 258 516 516 258 516 258 516 516 516 516 258 258 516 516 516 516 258 516 258 516 258 258 258 258 516 516 516 516 516 258 516 516 516 516 516 516 258 516 516 258 516 516 516 516 258 258 516 258 516 516 516 258 258 258 258 258 258 516 258 258 516 258 258 516 516 516 516 258 258 258 258 516 258 516 516 258 516 258 258 258 258 516 516 258 516 516 516 258 258 258 258 258 258 258 516 516 516 516 258 258 516 258 516 516 516 258 258 258 516 258 258 258 516 516 516 258 258 516 258 258 516 258 516 258 258 516 258 516 516 516 516 258 258 258 516 258 516 516 258 516 258 258 516 516 516 516 258 258 258 516 516 258 258 516 516 516 516 258 258 258 258 516 516 516 516 258 516 516 258 258 516 258 258 516 516 516 516 516 516 258 516 516 258 258 258 516 258 516 516 516 258 516 258 516 516 258 516 516 258 258 516 516 516 516 516 258 258 516 516 258 258 258 258 258 516 258 258 258 258 516 516 258 516 258 516 258 258 516 258 516 516 258 258 516 258 258 516 516 258 258 258 516 516 516 516 516 516 258 258 516 516 258 516 516 258 516 258 516 258 258 258 516 258 516 258 258 258 258 258 258 258 258 516 258 516 516 516 516 258 516 258 258 258 258 516 258 258 516 258 258 258 516 516 516 258 516 258 258 258 258 516 258 516 516 516 258 258 258 516 516 516 258 258 516 258 516 258 258 516 258 516 516 516 516 258 258 258 516 258 258 258 258 516 516 516 258 258 258 258 516 258 258 516 516 516 516 258 516 516 258 258 516 258 258 258 516 258 258 516 258 516 516 516 516 258 258 258 258 258 516 516 258 258 516 258 516 516 516 516 258 516 516 258 258 516 258 516 258 516 516 258 258 516 258 258 258 258 516 258 258 258 258 516 258 516 258 516 258 258 516 258 516 516 516 516 516 516 258 516 516 516 516 516 516 516 258 516 258 516 258 258 258 516 258 258 516 516 516 258 516 258 258 516 516 258 258 258 516 258 258 258 258 258 516 516 
! -------------------------------------------------------- 
